c 182_4_checker_5cl.cnf
c
c field = 182
c formula set type = 4_checker_5cl
c
p cnf 5 6
360 
364 
366 
368 
-370 
361 
365 
367 
369 
-371 
302 
332 
392 
422 
-272 
303 
333 
393 
423 
-273 
278 
306 
334 
390 
-250 
279 
307 
335 
391 
-251 
